nNurses = 132;
nHours = 28;
minHours = 8;
maxHours = 9;
maxConsec = 6;
maxPresence = 9;
demand = [17, 18, 15, 11, 8, 7, 8, 13, 15, 14, 19, 17, 18, 18, 21, 23, 19, 14, 10, 11, 6, 9, 14, 17, 16, 17, 18, 13];
